# Solution for model Manpower planning
# Objective value = 841.796875
Hire[1,s1] 0
Hire[1,s2] 0
Hire[1,s3] 0
Hire[2,s1] 0
Hire[2,s2] 6.4930355674342081e+02
Hire[2,s3] 500
Hire[3,s1] 0
Hire[3,s2] 6.7697368421052624e+02
Hire[3,s3] 500
Part_time[1,s1] 50
Part_time[1,s2] 50
Part_time[1,s3] 50
Part_time[2,s1] 50
Part_time[2,s2] 0
Part_time[2,s3] 0
Part_time[3,s1] 50
Part_time[3,s2] 0
Part_time[3,s3] 0
Available[1,s1] 1157.03125
Available[1,s2] 1442.96875
Available[1,s3] 1025
Available[2,s1] 675
Available[2,s2] 2000
Available[2,s3] 1500
Available[3,s1] 175
Available[3,s2] 2500
Available[3,s3] 2000
Layoff[1,s1] 442.96875
Layoff[1,s2] 0
Layoff[1,s3] 0
Layoff[2,s1] 166.328125
Layoff[2,s2] 0
Layoff[2,s3] 0
Layoff[3,s1] 232.5
Layoff[3,s2] 0
Layoff[3,s3] 0
Overmanned[1,s1] 132.03125
Overmanned[1,s2] 17.96875
Overmanned[1,s3] 0
Overmanned[2,s1] 150
Overmanned[2,s2] 0
Overmanned[2,s3] 0
Overmanned[3,s1] 150
Overmanned[3,s2] 0
Overmanned[3,s3] 0
Train[1,s1,s1] 0
Train[1,s1,s2] 200
Train[1,s1,s3] 0
Train[1,s2,s1] 0
Train[1,s2,s2] 0
Train[1,s2,s3] 256.25
Train[1,s3,s1] 0
Train[1,s3,s2] 168.4375
Train[1,s3,s3] 0
Train[2,s1,s1] 0
Train[2,s1,s2] 200
Train[2,s1,s3] 0
Train[2,s2,s1] 0
Train[2,s2,s2] 0
Train[2,s2,s3] 8.0263157894736850e+01
Train[2,s3,s1] 0
Train[2,s3,s2] 0
Train[2,s3,s3] 0
Train[3,s1,s1] 0
Train[3,s1,s2] 200
Train[3,s1,s3] 0
Train[3,s2,s1] 0
Train[3,s2,s2] 0
Train[3,s2,s3] 1.3157894736842107e+02
Train[3,s3,s1] 0
Train[3,s3,s2] 0
Train[3,s3,s3] 0
